c Checking s8 equivalent ripple-carry and carry-select adders
p cnf 6100 6000
-1 2 0
-2 3 0
-3 4 0
-4 5 0
-5 6 0
-6 7 0
-7 8 0
-8 9 0
-9 10 0
-10 11 0
-11 1 0
-11 2 0
-11 3 0
-20 -21 0
-21 22 0
22 20 0
22 -23 0
-23 -20 0
